
Log started (V11.0.0) Tue May 13 16:28:50 2008

Tried aggregator 1 time.
Reduced MIP has 120 rows, 2001 columns, and 4020 nonzeros.
Presolve time =    0.02 sec.
Clique table members: 100.
MIP emphasis: balance optimality and feasibility.
MIP search method: dynamic search.
Parallel mode: none, using 1 thread.
Root relaxation solution time =    0.05 sec.

        Nodes                                         Cuts/
   Node  Left     Objective  IInf  Best Integer     Best Node    ItCnt     Gap

*     0+    0                        11067.0000      504.5949      249   95.44%
*     0+    0                          509.0000      504.5949      249    0.87%
      0     0      505.0000    24      509.0000      Fract: 6      254    0.79%
      0     0      505.0000    36      509.0000     Covers: 1      286    0.79%
      0     0      505.0000    33      509.0000     Covers: 1      290    0.79%
      0     2      505.0000    33      509.0000      505.0000      290    0.79%
    100    50      506.0000    32      509.0000      505.0000     2107    0.79%
    200    83        cutoff            509.0000      505.0000     4372    0.79%
    300    88      508.0000    29      509.0000      505.0000     7003    0.79%
    400    90    infeasible            509.0000      505.0000    10092    0.79%
    500   139        cutoff            509.0000      507.0000    12406    0.39%
    600   141      508.0000    32      509.0000      507.0000    14323    0.39%
    700   125        cutoff            509.0000      507.0000    16619    0.39%
    800   180      507.0000    27      509.0000      507.0000    18842    0.39%
    900   234        cutoff            509.0000      507.0000    20798    0.39%
   1000   280        cutoff            509.0000      507.0000    23263    0.39%
Elapsed time =   8.25 sec. (tree size =  0.68 MB, solutions = 2)
   1100   325      508.0000    32      509.0000      507.0000    25697    0.39%
   1200   362        cutoff            509.0000      507.0000    27907    0.39%
   1300   432      508.0000     2      509.0000      507.0000    30191    0.39%
   1400   511        cutoff            509.0000      507.0000    31212    0.39%
*  1463+   19                          508.0000      507.0000    32348    0.20%

Cover cuts applied:  28
Mixed integer rounding cuts applied:  2
Gomory fractional cuts applied:  10

Solution pool: 3 solutions saved.

MIP - Integer optimal solution:  Objective = 5.0800000000e+002
Solution time =   12.00 sec.  Iterations = 48011  Nodes = 1482


Incumbent solution
Variable Name           Solution Value
Cmax                        508.000000
X_1_20                        1.000000
X_2_13                        1.000000
X_3_3                         1.000000
X_4_10                        1.000000
X_5_2                         1.000000
X_6_13                        1.000000
X_7_3                         1.000000
X_8_2                         1.000000
X_9_12                        1.000000
X_10_7                        1.000000
X_11_1                        1.000000
X_12_16                       1.000000
X_13_2                        1.000000
X_14_1                        1.000000
X_15_15                       1.000000
X_16_16                       1.000000
X_17_10                       1.000000
X_18_20                       1.000000
X_19_8                        1.000000
X_20_6                        1.000000
X_21_2                        1.000000
X_22_18                       1.000000
X_23_18                       1.000000
X_24_14                       1.000000
X_25_19                       1.000000
X_26_9                        1.000000
X_27_15                       1.000000
X_28_11                       1.000000
X_29_12                       1.000000
X_30_19                       1.000000
X_31_4                        1.000000
X_32_9                        1.000000
X_33_15                       1.000000
X_34_20                       1.000000
X_35_16                       1.000000
X_36_17                       1.000000
X_37_6                        1.000000
X_38_7                        1.000000
X_39_5                        1.000000
X_40_3                        1.000000
X_41_3                        1.000000
X_42_9                        1.000000
X_43_13                       1.000000
X_44_12                       1.000000
X_45_13                       1.000000
X_46_8                        1.000000
X_47_6                        1.000000
X_48_15                       1.000000
X_49_15                       1.000000
X_50_11                       1.000000
X_51_14                       1.000000
X_52_12                       1.000000
X_53_16                       1.000000
X_54_18                       1.000000
X_55_4                        1.000000
X_56_17                       1.000000
X_57_7                        1.000000
X_58_19                       1.000000
X_59_7                        1.000000
X_60_14                       1.000000
X_61_5                        1.000000
X_62_3                        1.000000
X_63_5                        1.000000
X_64_1                        1.000000
X_65_8                        1.000000
X_66_5                        1.000000
X_67_19                       1.000000
X_68_6                        1.000000
X_69_12                       1.000000
X_70_4                        1.000000
X_71_20                       1.000000
X_72_8                        1.000000
X_73_1                        1.000000
X_74_2                        1.000000
X_75_11                       1.000000
X_76_6                        1.000000
X_77_11                       1.000000
X_78_17                       1.000000
X_79_5                        1.000000
X_80_9                        1.000000
X_81_11                       1.000000
X_82_19                       1.000000
X_83_4                        1.000000
X_84_7                        1.000000
X_85_18                       1.000000
X_86_10                       1.000000
X_87_17                       1.000000
X_88_8                        1.000000
X_89_10                       1.000000
X_90_4                        1.000000
X_91_9                        1.000000
X_92_18                       1.000000
X_93_16                       1.000000
X_94_10                       1.000000
X_95_13                       1.000000
X_96_1                        1.000000
X_97_17                       1.000000
X_98_14                       1.000000
X_99_20                       1.000000
X_100_14                      1.000000
All other variables in the range 1-2001 are 0.
